n=20;
t=24;
profit=[5 1 9 3 1 10 3 9 2 5 3 5 9 7 7 10 6 4 5 9];
length=[1 1 3 1 2 4 1 4 1 5 1 1 5 3 1 5 4 5 2 1];
min_deliver=[24 2 9 3 20 4 20 10 3 13 3 18 10 4 18 6 21 5 14 1];
max_deliver=[24 2 13 3 20 4 22 15 5 16 4 20 10 4 22 7 22 5 19 5];
surface=[3 4 1 2 5 4 5 5 3 2 2 3 5 2 3 2 2 2 4 4];
surface_capacity=20;
